\ Model qp
\ LP format - for model browsing. Use MPS format to capture full model detail.
Maximize
  IS0 + IS1 + IS2 + IS3 + IS4
Subject To
 Predicate-C-0.1: IS0 <= -6.9808e-07
 Predicate-C-1.1: IS1 <= 0
 Predicate-C-2.1: IS2 <= 0
 Predicate-C-3.1: IS3 <= -0.4255124677419355
 Predicate-C-4.1: IS4 <= 0
Bounds
 IS0 free
 IS1 free
 IS2 free
 IS3 free
 IS4 free
End
